p cnf 15 29
5 1 13 6 0
5 15 -3 0
-12 5 -3 0
14 10 -15 0
13 10 12 6 0
-4 -7 5 -15 11 0
13 -12 -2 0
-6 -5 12 -15 0
11 8 3 0
-10 -5 -8 0
-6 2 -9 0
14 13 0
-11 6 14 7 -9 5 4 2 10 15 3 0
11 6 -10 14 7 4 -8 -2 15 12 -5 3 0
15 -3 0
-5 -6 1 12 15 0
-15 12 13 0
7 15 12 6 -11 0
-2 -14 12 -5 13 10 1 -7 -6 -9 -3 15 -8 4 0
8 -14 -15 3 6 1 -5 11 13 -7 -9 2 -12 0
-12 11 -15 14 0
-5 -4 0
5 4 -11 10 2 13 -7 -3 8 9 14 -6 -1 -12 0
-9 11 -10 13 2 12 -1 0
4 9 -10 8 0
-2 -8 -3 -15 10 0
-13 -14 3 0
8 7 0
2 -3 -13 12 1 -11 15 5 8 10 -9 4 7 0
